coords = array2d(1..75, 1..2, [616, 849, 575, 68, 823, 310, 132, 964, 713, 855,
    343, 299, 503, 620, 558, 649, 756, 647, 462, 622, 328, 576, 115,
    785, 938, 447, 109, 570, 808, 612, 415, 823, 280, 853, 844, 690,
    432, 786, 174, 807, 508, 167, 243, 267, 249, 920, 378, 31, 146,
    418, 765, 209, 797, 345, 795, 97, 940, 324, 381, 282, 923, 520,
    866, 848, 117, 573, 226, 513, 850, 119, 213, 827, 628, 933, 806,
    96, 55, 384, 969, 617, 561, 392, 372, 929, 113, 753, 211, 166,
    712, 620, 130, 11, 90, 942, 504, 206, 779, 599, 829, 743, 143,
    738, 621, 684, 485, 161, 340, 749, 86, 738, 485, 907, 849, 223,
    398, 84, 145, 182, 596, 393, 256, 780, 682, 471, 892, 1, 401, 63,
    558, 570, 522, 373, 116, 633, 902, 394, 179, 289, 245, 726, 973,
    133, 739, 464, 744, 203, 427, 20, 468, 550]);

n = 75;

